N = 9;
H = 6;
T = 2;

avail = array3d(1..N, 1..H, 1..T, [3, 3, 10, 10, 3, 6, 4, 6, 2, 5, 1, 4, 9, 10, 8, 1, 5, 9, 4, 7, 3, 0, 7, 4, 0, 1, 8, 9, 3, 4, 1, 3, 10, 3, 6, 10, 9, 1, 8, 0, 8, 8, 10, 9, 9, 9, 10, 8, 1, 0, 4, 1, 10, 6, 4, 1, 9, 8, 3, 4, 0, 2, 3, 4, 2, 5, 1, 0, 4, 7, 6, 10, 2, 1, 0, 10, 0, 5, 10, 3, 0, 4, 9, 7, 8, 6, 4, 3, 5, 6, 7, 6, 6, 0, 6, 6, 4, 0, 6, 1, 2, 2, 2, 4, 3, 1, 10, 4]);

r = array2d(1..H, 1..T, [2, 1, 2, 3, 5, 1, 2, 2, 4, 5, 2, 2]);
